p cnf 248 1660
1 2 0
-1 -2 0
3 4 0
-3 -4 0
5 6 0
-5 -6 0
7 8 0
-7 -8 0
9 10 0
-9 -10 0
11 12 0
-11 -12 0
13 14 0
-13 -14 0
15 16 0
-15 -16 0
17 18 0
-17 -18 0
19 20 0
-19 -20 0
21 22 0
-21 -22 0
23 24 0
-23 -24 0
25 26 0
-25 -26 0
27 28 0
-27 -28 0
29 30 0
-29 -30 0
31 32 0
-31 -32 0
33 34 0
-33 -34 0
35 36 0
-35 -36 0
37 38 0
-37 -38 0
39 40 0
-39 -40 0
41 42 0
-41 -42 0
43 44 0
-43 -44 0
45 46 0
-45 -46 0
47 48 0
-47 -48 0
49 50 0
-49 -50 0
51 52 0
-51 -52 0
53 54 0
-53 -54 0
55 56 0
-55 -56 0
57 58 0
-57 -58 0
59 60 0
-59 -60 0
61 62 0
-61 -62 0
63 64 0
-63 -64 0
65 66 0
-65 -66 0
67 68 0
-67 -68 0
69 70 0
-69 -70 0
71 72 0
-71 -72 0
73 74 0
-73 -74 0
75 76 0
-75 -76 0
77 78 0
-77 -78 0
79 80 0
-79 -80 0
81 82 0
-81 -82 0
83 84 0
-83 -84 0
85 86 0
-85 -86 0
87 88 0
-87 -88 0
89 90 0
-89 -90 0
91 92 0
-91 -92 0
93 94 0
-93 -94 0
95 96 0
-95 -96 0
97 98 0
-97 -98 0
99 100 0
-99 -100 0
101 102 0
-101 -102 0
103 104 0
-103 -104 0
105 106 0
-105 -106 0
107 108 0
-107 -108 0
109 110 0
-109 -110 0
111 112 0
-111 -112 0
113 114 0
-113 -114 0
115 116 0
-115 -116 0
117 118 0
-117 -118 0
119 120 0
-119 -120 0
121 122 0
-121 -122 0
123 124 0
-123 -124 0
125 126 0
-125 -126 0
127 128 0
-127 -128 0
129 130 0
-129 -130 0
131 132 0
-131 -132 0
133 134 0
-133 -134 0
135 136 0
-135 -136 0
137 138 0
-137 -138 0
139 140 0
-139 -140 0
141 142 0
-141 -142 0
143 144 0
-143 -144 0
145 146 0
-145 -146 0
147 148 0
-147 -148 0
149 150 0
-149 -150 0
151 152 0
-151 -152 0
153 154 0
-153 -154 0
155 156 0
-155 -156 0
-1 -3 0
-1 -5 0
-1 -7 0
-3 -5 0
-3 -7 0
-5 -7 0
-2 -4 0
-2 -6 0
-2 -8 0
-4 -6 0
-4 -8 0
-6 -8 0
-9 -11 0
-10 -12 0
-13 -15 0
-14 -16 0
-17 -19 0
-17 -21 0
-17 -23 0
-17 -25 0
-17 -27 0
-17 -29 0
-19 -21 0
-19 -23 0
-19 -25 0
-19 -27 0
-19 -29 0
-21 -23 0
-21 -25 0
-21 -27 0
-21 -29 0
-23 -25 0
-23 -27 0
-23 -29 0
-25 -27 0
-25 -29 0
-27 -29 0
-18 -20 0
-18 -22 0
-18 -24 0
-18 -26 0
-18 -28 0
-18 -30 0
-20 -22 0
-20 -24 0
-20 -26 0
-20 -28 0
-20 -30 0
-22 -24 0
-22 -26 0
-22 -28 0
-22 -30 0
-24 -26 0
-24 -28 0
-24 -30 0
-26 -28 0
-26 -30 0
-28 -30 0
-31 -33 0
-32 -34 0
-35 -37 0
-36 -38 0
-39 -41 0
-40 -42 0
-43 -45 0
-43 -47 0
-43 -49 0
-45 -47 0
-45 -49 0
-47 -49 0
-44 -46 0
-44 -48 0
-44 -50 0
-46 -48 0
-46 -50 0
-48 -50 0
-51 -53 0
-51 -55 0
-53 -55 0
-52 -54 0
-52 -56 0
-54 -56 0
-57 -59 0
-57 -61 0
-57 -63 0
-57 -65 0
-59 -61 0
-59 -63 0
-59 -65 0
-61 -63 0
-61 -65 0
-63 -65 0
-58 -60 0
-58 -62 0
-58 -64 0
-58 -66 0
-60 -62 0
-60 -64 0
-60 -66 0
-62 -64 0
-62 -66 0
-64 -66 0
-67 -69 0
-68 -70 0
-71 -73 0
-71 -75 0
-71 -77 0
-73 -75 0
-73 -77 0
-75 -77 0
-72 -74 0
-72 -76 0
-72 -78 0
-74 -76 0
-74 -78 0
-76 -78 0
-79 -81 0
-79 -83 0
-79 -85 0
-81 -83 0
-81 -85 0
-83 -85 0
-80 -82 0
-80 -84 0
-80 -86 0
-82 -84 0
-82 -86 0
-84 -86 0
-87 -89 0
-88 -90 0
-91 -93 0
-91 -95 0
-91 -97 0
-91 -99 0
-93 -95 0
-93 -97 0
-93 -99 0
-95 -97 0
-95 -99 0
-97 -99 0
-92 -94 0
-92 -96 0
-92 -98 0
-92 -100 0
-94 -96 0
-94 -98 0
-94 -100 0
-96 -98 0
-96 -100 0
-98 -100 0
-101 -103 0
-101 -105 0
-103 -105 0
-102 -104 0
-102 -106 0
-104 -106 0
-107 -109 0
-107 -111 0
-107 -113 0
-109 -111 0
-109 -113 0
-111 -113 0
-108 -110 0
-108 -112 0
-108 -114 0
-110 -112 0
-110 -114 0
-112 -114 0
-115 -117 0
-116 -118 0
-119 -121 0
-120 -122 0
-123 -125 0
-124 -126 0
-127 -129 0
-127 -131 0
-127 -133 0
-127 -135 0
-127 -137 0
-127 -139 0
-129 -131 0
-129 -133 0
-129 -135 0
-129 -137 0
-129 -139 0
-131 -133 0
-131 -135 0
-131 -137 0
-131 -139 0
-133 -135 0
-133 -137 0
-133 -139 0
-135 -137 0
-135 -139 0
-137 -139 0
-128 -130 0
-128 -132 0
-128 -134 0
-128 -136 0
-128 -138 0
-128 -140 0
-130 -132 0
-130 -134 0
-130 -136 0
-130 -138 0
-130 -140 0
-132 -134 0
-132 -136 0
-132 -138 0
-132 -140 0
-134 -136 0
-134 -138 0
-134 -140 0
-136 -138 0
-136 -140 0
-138 -140 0
-141 -143 0
-142 -144 0
-145 -147 0
-146 -148 0
-149 -151 0
-149 -153 0
-149 -155 0
-151 -153 0
-151 -155 0
-153 -155 0
-150 -152 0
-150 -154 0
-150 -156 0
-152 -154 0
-152 -156 0
-154 -156 0
-1 -17 0
-1 -35 0
-1 -51 0
-17 -35 0
-17 -51 0
-35 -51 0
-2 -18 0
-2 -36 0
-2 -52 0
-18 -36 0
-18 -52 0
-36 -52 0
-91 -107 0
-91 -123 0
-91 -141 0
-107 -123 0
-107 -141 0
-123 -141 0
-92 -108 0
-92 -124 0
-92 -142 0
-108 -124 0
-108 -142 0
-124 -142 0
-3 -19 0
-3 -37 0
-3 -53 0
-19 -37 0
-19 -53 0
-37 -53 0
-4 -20 0
-4 -38 0
-4 -54 0
-20 -38 0
-20 -54 0
-38 -54 0
-79 -93 0
-79 -109 0
-79 -125 0
-79 -143 0
-93 -109 0
-93 -125 0
-93 -143 0
-109 -125 0
-109 -143 0
-125 -143 0
-80 -94 0
-80 -110 0
-80 -126 0
-80 -144 0
-94 -110 0
-94 -126 0
-94 -144 0
-110 -126 0
-110 -144 0
-126 -144 0
-5 -21 0
-6 -22 0
-55 -67 0
-55 -81 0
-55 -95 0
-55 -111 0
-67 -81 0
-67 -95 0
-67 -111 0
-81 -95 0
-81 -111 0
-95 -111 0
-56 -68 0
-56 -82 0
-56 -96 0
-56 -112 0
-68 -82 0
-68 -96 0
-68 -112 0
-82 -96 0
-82 -112 0
-96 -112 0
-7 -23 0
-7 -39 0
-23 -39 0
-8 -24 0
-8 -40 0
-24 -40 0
-69 -83 0
-69 -97 0
-69 -113 0
-69 -127 0
-69 -145 0
-83 -97 0
-83 -113 0
-83 -127 0
-83 -145 0
-97 -113 0
-97 -127 0
-97 -145 0
-113 -127 0
-113 -145 0
-127 -145 0
-70 -84 0
-70 -98 0
-70 -114 0
-70 -128 0
-70 -146 0
-84 -98 0
-84 -114 0
-84 -128 0
-84 -146 0
-98 -114 0
-98 -128 0
-98 -146 0
-114 -128 0
-114 -146 0
-128 -146 0
-25 -41 0
-26 -42 0
-85 -99 0
-86 -100 0
-129 -147 0
-130 -148 0
-9 -27 0
-10 -28 0
-57 -71 0
-58 -72 0
-115 -131 0
-116 -132 0
-11 -29 0
-11 -43 0
-11 -59 0
-11 -73 0
-11 -87 0
-29 -43 0
-29 -59 0
-29 -73 0
-29 -87 0
-43 -59 0
-43 -73 0
-43 -87 0
-59 -73 0
-59 -87 0
-73 -87 0
-12 -30 0
-12 -44 0
-12 -60 0
-12 -74 0
-12 -88 0
-30 -44 0
-30 -60 0
-30 -74 0
-30 -88 0
-44 -60 0
-44 -74 0
-44 -88 0
-60 -74 0
-60 -88 0
-74 -88 0
-117 -133 0
-117 -149 0
-133 -149 0
-118 -134 0
-118 -150 0
-134 -150 0
-45 -61 0
-45 -75 0
-45 -89 0
-45 -101 0
-61 -75 0
-61 -89 0
-61 -101 0
-75 -89 0
-75 -101 0
-89 -101 0
-46 -62 0
-46 -76 0
-46 -90 0
-46 -102 0
-62 -76 0
-62 -90 0
-62 -102 0
-76 -90 0
-76 -102 0
-90 -102 0
-135 -151 0
-136 -152 0
-13 -31 0
-13 -47 0
-13 -63 0
-13 -77 0
-31 -47 0
-31 -63 0
-31 -77 0
-47 -63 0
-47 -77 0
-63 -77 0
-14 -32 0
-14 -48 0
-14 -64 0
-14 -78 0
-32 -48 0
-32 -64 0
-32 -78 0
-48 -64 0
-48 -78 0
-64 -78 0
-103 -119 0
-103 -137 0
-103 -153 0
-119 -137 0
-119 -153 0
-137 -153 0
-104 -120 0
-104 -138 0
-104 -154 0
-120 -138 0
-120 -154 0
-138 -154 0
-15 -33 0
-15 -49 0
-15 -65 0
-33 -49 0
-33 -65 0
-49 -65 0
-16 -34 0
-16 -50 0
-16 -66 0
-34 -50 0
-34 -66 0
-50 -66 0
-105 -121 0
-105 -139 0
-105 -155 0
-121 -139 0
-121 -155 0
-139 -155 0
-106 -122 0
-106 -140 0
-106 -156 0
-122 -140 0
-122 -156 0
-140 -156 0
0202fc1 -02021
0202fc1 -02031
0202fc1 -02041
0202fc1 -02051
-0202fc1 02021 02031 02041 02051
0202fc2 -02022
0202fc2 -02032
0202fc2 -02042
0202fc2 -02052
-0202fc2 02022 02032 02042 02052
0207fc1 -02071
0207fc1 -02081
-0207fc1 02071 02081
0207fc2 -02072
0207fc2 -02082
-0207fc2 02072 02082
0210fc1 -02101
0210fc1 -02111
-0210fc1 02101 02111
0210fc2 -02102
0210fc2 -02112
-0210fc2 02102 02112
0302fc1 -03021
0302fc1 -03031
0302fc1 -03041
0302fc1 -03051
0302fc1 -03061
0302fc1 -03071
0302fc1 -03081
-0302fc1 03021 03031 03041 03051 03061 03071 03081
0302fc2 -03022
0302fc2 -03032
0302fc2 -03042
0302fc2 -03052
0302fc2 -03062
0302fc2 -03072
0302fc2 -03082
-0302fc2 03022 03032 03042 03052 03062 03072 03082
0310fc1 -03101
0310fc1 -03111
-0310fc1 03101 03111
0310fc2 -03102
0310fc2 -03112
-0310fc2 03102 03112
0402fc1 -04021
0402fc1 -04031
-0402fc1 04021 04031
0402fc2 -04022
0402fc2 -04032
-0402fc2 04022 04032
0405fc1 -04051
0405fc1 -04061
-0405fc1 04051 04061
0405fc2 -04052
0405fc2 -04062
-0405fc2 04052 04062
0408fc1 -04081
0408fc1 -04091
0408fc1 -04101
0408fc1 -04111
-0408fc1 04081 04091 04101 04111
0408fc2 -04082
0408fc2 -04092
0408fc2 -04102
0408fc2 -04112
-0408fc2 04082 04092 04102 04112
0502fc1 -05021
0502fc1 -05031
0502fc1 -05041
-0502fc1 05021 05031 05041
0502fc2 -05022
0502fc2 -05032
0502fc2 -05042
-0502fc2 05022 05032 05042
0507fc1 -05071
0507fc1 -05081
0507fc1 -05091
0507fc1 -05101
0507fc1 -05111
-0507fc1 05071 05081 05091 05101 05111
0507fc2 -05072
0507fc2 -05082
0507fc2 -05092
0507fc2 -05102
0507fc2 -05112
-0507fc2 05072 05082 05092 05102 05112
0604fc1 -06041
0604fc1 -06051
-0604fc1 06041 06051
0604fc2 -06042
0604fc2 -06052
-0604fc2 06042 06052
0607fc1 -06071
0607fc1 -06081
0607fc1 -06091
0607fc1 -06101
-0607fc1 06071 06081 06091 06101
0607fc2 -06072
0607fc2 -06082
0607fc2 -06092
0607fc2 -06102
-0607fc2 06072 06082 06092 06102
0703fc1 -07031
0703fc1 -07041
0703fc1 -07051
0703fc1 -07061
-0703fc1 07031 07041 07051 07061
0703fc2 -07032
0703fc2 -07042
0703fc2 -07052
0703fc2 -07062
-0703fc2 07032 07042 07052 07062
0708fc1 -07081
0708fc1 -07091
-0708fc1 07081 07091
0708fc2 -07082
0708fc2 -07092
-0708fc2 07082 07092
0802fc1 -08021
0802fc1 -08031
0802fc1 -08041
0802fc1 -08051
0802fc1 -08061
-0802fc1 08021 08031 08041 08051 08061
0802fc2 -08022
0802fc2 -08032
0802fc2 -08042
0802fc2 -08052
0802fc2 -08062
-0802fc2 08022 08032 08042 08052 08062
0809fc1 -08091
0809fc1 -08101
0809fc1 -08111
-0809fc1 08091 08101 08111
0809fc2 -08092
0809fc2 -08102
0809fc2 -08112
-0809fc2 08092 08102 08112
0902fc1 -09021
0902fc1 -09031
0902fc1 -09041
0902fc1 -09051
-0902fc1 09021 09031 09041 09051
0902fc2 -09022
0902fc2 -09032
0902fc2 -09042
0902fc2 -09052
-0902fc2 09022 09032 09042 09052
0907fc1 -09071
0907fc1 -09081
-0907fc1 09071 09081
0907fc2 -09072
0907fc2 -09082
-0907fc2 09072 09082
0910fc1 -09101
0910fc1 -09111
-0910fc1 09101 09111
0910fc2 -09102
0910fc2 -09112
-0910fc2 09102 09112
1002fc1 -10021
1002fc1 -10031
-1002fc1 10021 10031
1002fc2 -10022
1002fc2 -10032
-1002fc2 10022 10032
1005fc1 -10051
1005fc1 -10061
1005fc1 -10071
1005fc1 -10081
1005fc1 -10091
1005fc1 -10101
1005fc1 -10111
-1005fc1 10051 10061 10071 10081 10091 10101 10111
1005fc2 -10052
1005fc2 -10062
1005fc2 -10072
1005fc2 -10082
1005fc2 -10092
1005fc2 -10102
1005fc2 -10112
-1005fc2 10052 10062 10072 10082 10092 10102 10112
1102fc1 -11021
1102fc1 -11031
-1102fc1 11021 11031
1102fc2 -11022
1102fc2 -11032
-1102fc2 11022 11032
1105fc1 -11051
1105fc1 -11061
-1105fc1 11051 11061
1105fc2 -11052
1105fc2 -11062
-1105fc2 11052 11062
1108fc1 -11081
1108fc1 -11091
1108fc1 -11101
1108fc1 -11111
-1108fc1 11081 11091 11101 11111
1108fc2 -11082
1108fc2 -11092
1108fc2 -11102
1108fc2 -11112
-1108fc2 11082 11092 11102 11112
0202cc1 -02021
0202cc1 -03021
0202cc1 -04021
0202cc1 -05021
-0202cc1 02021 03021 04021 05021
0202cc2 -02022
0202cc2 -03022
0202cc2 -04022
0202cc2 -05022
-0202cc2 02022 03022 04022 05022
0802cc1 -08021
0802cc1 -09021
0802cc1 -10021
0802cc1 -11021
-0802cc1 08021 09021 10021 11021
0802cc2 -08022
0802cc2 -09022
0802cc2 -10022
0802cc2 -11022
-0802cc2 08022 09022 10022 11022
0203cc1 -02031
0203cc1 -03031
0203cc1 -04031
0203cc1 -05031
-0203cc1 02031 03031 04031 05031
0203cc2 -02032
0203cc2 -03032
0203cc2 -04032
0203cc2 -05032
-0203cc2 02032 03032 04032 05032
0703cc1 -07031
0703cc1 -08031
0703cc1 -09031
0703cc1 -10031
0703cc1 -11031
-0703cc1 07031 08031 09031 10031 11031
0703cc2 -07032
0703cc2 -08032
0703cc2 -09032
0703cc2 -10032
0703cc2 -11032
-0703cc2 07032 08032 09032 10032 11032
0204cc1 -02041
0204cc1 -03041
-0204cc1 02041 03041
0204cc2 -02042
0204cc2 -03042
-0204cc2 02042 03042
0504cc1 -05041
0504cc1 -06041
0504cc1 -07041
0504cc1 -08041
0504cc1 -09041
-0504cc1 05041 06041 07041 08041 09041
0504cc2 -05042
0504cc2 -06042
0504cc2 -07042
0504cc2 -08042
0504cc2 -09042
-0504cc2 05042 06042 07042 08042 09042
0205cc1 -02051
0205cc1 -03051
0205cc1 -04051
-0205cc1 02051 03051 04051
0205cc2 -02052
0205cc2 -03052
0205cc2 -04052
-0205cc2 02052 03052 04052
0605cc1 -06051
0605cc1 -07051
0605cc1 -08051
0605cc1 -09051
0605cc1 -10051
0605cc1 -11051
-0605cc1 06051 07051 08051 09051 10051 11051
0605cc2 -06052
0605cc2 -07052
0605cc2 -08052
0605cc2 -09052
0605cc2 -10052
0605cc2 -11052
-0605cc2 06052 07052 08052 09052 10052 11052
0306cc1 -03061
0306cc1 -04061
-0306cc1 03061 04061
0306cc2 -03062
0306cc2 -04062
-0306cc2 03062 04062
0706cc1 -07061
0706cc1 -08061
-0706cc1 07061 08061
0706cc2 -07062
0706cc2 -08062
-0706cc2 07062 08062
1006cc1 -10061
1006cc1 -11061
-1006cc1 10061 11061
1006cc2 -10062
1006cc2 -11062
-1006cc2 10062 11062
0207cc1 -02071
0207cc1 -03071
-0207cc1 02071 03071
0207cc2 -02072
0207cc2 -03072
-0207cc2 02072 03072
0507cc1 -05071
0507cc1 -06071
-0507cc1 05071 06071
0507cc2 -05072
0507cc2 -06072
-0507cc2 05072 06072
0907cc1 -09071
0907cc1 -10071
-0907cc1 09071 10071
0907cc2 -09072
0907cc2 -10072
-0907cc2 09072 10072
0208cc1 -02081
0208cc1 -03081
0208cc1 -04081
0208cc1 -05081
0208cc1 -06081
0208cc1 -07081
-0208cc1 02081 03081 04081 05081 06081 07081
0208cc2 -02082
0208cc2 -03082
0208cc2 -04082
0208cc2 -05082
0208cc2 -06082
0208cc2 -07082
-0208cc2 02082 03082 04082 05082 06082 07082
0908cc1 -09081
0908cc1 -10081
0908cc1 -11081
-0908cc1 09081 10081 11081
0908cc2 -09082
0908cc2 -10082
0908cc2 -11082
-0908cc2 09082 10082 11082
0409cc1 -04091
0409cc1 -05091
0409cc1 -06091
0409cc1 -07091
0409cc1 -08091
-0409cc1 04091 05091 06091 07091 08091
0409cc2 -04092
0409cc2 -05092
0409cc2 -06092
0409cc2 -07092
0409cc2 -08092
-0409cc2 04092 05092 06092 07092 08092
1009cc1 -10091
1009cc1 -11091
-1009cc1 10091 11091
1009cc2 -10092
1009cc2 -11092
-1009cc2 10092 11092
0210cc1 -02101
0210cc1 -03101
0210cc1 -04101
0210cc1 -05101
0210cc1 -06101
-0210cc1 02101 03101 04101 05101 06101
0210cc2 -02102
0210cc2 -03102
0210cc2 -04102
0210cc2 -05102
0210cc2 -06102
-0210cc2 02102 03102 04102 05102 06102
0810cc1 -08101
0810cc1 -09101
0810cc1 -10101
0810cc1 -11101
-0810cc1 08101 09101 10101 11101
0810cc2 -08102
0810cc2 -09102
0810cc2 -10102
0810cc2 -11102
-0810cc2 08102 09102 10102 11102
0211cc1 -02111
0211cc1 -03111
0211cc1 -04111
0211cc1 -05111
-0211cc1 02111 03111 04111 05111
0211cc2 -02112
0211cc2 -03112
0211cc2 -04112
0211cc2 -05112
-0211cc2 02112 03112 04112 05112
0811cc1 -08111
0811cc1 -09111
0811cc1 -10111
0811cc1 -11111
-0811cc1 08111 09111 10111 11111
0811cc2 -08112
0811cc2 -09112
0811cc2 -10112
0811cc2 -11112
-0811cc2 08112 09112 10112 11112
